p cnf 225 1
225 0
w 1 0.0842966
w 2 1 0.0257472
w 2 -1 0.384882
w 3 2 0.410445
w 3 -2 0.168985
w 4 3 0.903378
w 4 -3 0.439774
w 5 4 0
w 5 -4 1
w 6 5 1
w 6 -5 0
w 7 6 0.11312
w 7 -6 0.276849
w 8 7 1
w 8 -7 0
w 9 8 0.903447
w 9 -8 0.933731
w 10 9 0.48037
w 10 -9 0.0735328
w 11 10 1
w 11 -10 0
w 12 11 0.38886
w 12 -11 0.841633
w 13 12 0.473156
w 13 -12 0.81623
w 14 13 0.858039
w 14 -13 0.751876
w 15 14 0
w 15 -14 1
w 16 1 0.981762
w 16 -1 0.466797
w 17 16 2 1
w 17 16 -2 1
w 17 -16 2 1
w 17 -16 -2 0
w 18 17 3 1
w 18 17 -3 1
w 18 -17 3 0
w 18 -17 -3 1
w 19 18 4 1
w 19 18 -4 0
w 19 -18 4 1
w 19 -18 -4 0
w 20 19 5 1
w 20 19 -5 0
w 20 -19 5 1
w 20 -19 -5 1
w 21 20 6 0.0261672
w 21 20 -6 0.528469
w 21 -20 6 0.573061
w 21 -20 -6 0.884206
w 22 21 7 0
w 22 21 -7 1
w 22 -21 7 0
w 22 -21 -7 1
w 23 22 8 0
w 23 22 -8 0
w 23 -22 8 1
w 23 -22 -8 1
w 24 23 9 0.32594
w 24 23 -9 0.271255
w 24 -23 9 0.395284
w 24 -23 -9 0.632943
w 25 24 10 1
w 25 24 -10 1
w 25 -24 10 1
w 25 -24 -10 0
w 26 25 11 1
w 26 25 -11 1
w 26 -25 11 0
w 26 -25 -11 0
w 27 26 12 1
w 27 26 -12 0
w 27 -26 12 1
w 27 -26 -12 0
w 28 27 13 1
w 28 27 -13 1
w 28 -27 13 1
w 28 -27 -13 0
w 29 28 14 0
w 29 28 -14 0
w 29 -28 14 1
w 29 -28 -14 1
w 30 29 15 0.787575
w 30 29 -15 0.940952
w 30 -29 15 0.266869
w 30 -29 -15 0.18286
w 31 16 0.757222
w 31 -16 0.0498295
w 32 31 17 0
w 32 31 -17 1
w 32 -31 17 0
w 32 -31 -17 1
w 33 32 18 0.0863945
w 33 32 -18 0.846933
w 33 -32 18 0.960358
w 33 -32 -18 0.442391
w 34 33 19 0.890699
w 34 33 -19 0.37145
w 34 -33 19 0.0233953
w 34 -33 -19 0.101384
w 35 34 20 0.964958
w 35 34 -20 0.328654
w 35 -34 20 0.165665
w 35 -34 -20 0.284548
w 36 35 21 0.126194
w 36 35 -21 0.899561
w 36 -35 21 0.732298
w 36 -35 -21 0.913769
w 37 36 22 0.999167
w 37 36 -22 0.0966287
w 37 -36 22 0.414409
w 37 -36 -22 0.756388
w 38 37 23 1
w 38 37 -23 0
w 38 -37 23 0
w 38 -37 -23 0
w 39 38 24 0.583897
w 39 38 -24 0.490313
w 39 -38 24 0.534159
w 39 -38 -24 0.0262882
w 40 39 25 1
w 40 39 -25 0
w 40 -39 25 0
w 40 -39 -25 0
w 41 40 26 0
w 41 40 -26 0
w 41 -40 26 0
w 41 -40 -26 1
w 42 41 27 0.655837
w 42 41 -27 0.323876
w 42 -41 27 0.555319
w 42 -41 -27 0.49635
w 43 42 28 0
w 43 42 -28 1
w 43 -42 28 1
w 43 -42 -28 0
w 44 43 29 0.995841
w 44 43 -29 0.813719
w 44 -43 29 0.270244
w 44 -43 -29 0.639221
w 45 44 30 1
w 45 44 -30 0
w 45 -44 30 0
w 45 -44 -30 0
w 46 31 0.346535
w 46 -31 0.278167
w 47 46 32 1
w 47 46 -32 0
w 47 -46 32 1
w 47 -46 -32 0
w 48 47 33 1
w 48 47 -33 1
w 48 -47 33 0
w 48 -47 -33 1
w 49 48 34 0.340083
w 49 48 -34 0.499868
w 49 -48 34 0.966168
w 49 -48 -34 0.99203
w 50 49 35 0
w 50 49 -35 0
w 50 -49 35 1
w 50 -49 -35 0
w 51 50 36 0
w 51 50 -36 0
w 51 -50 36 1
w 51 -50 -36 0
w 52 51 37 0.188183
w 52 51 -37 0.423104
w 52 -51 37 0.259887
w 52 -51 -37 0.466349
w 53 52 38 0.132663
w 53 52 -38 0.0942071
w 53 -52 38 0.134188
w 53 -52 -38 0.860333
w 54 53 39 1
w 54 53 -39 0
w 54 -53 39 0
w 54 -53 -39 1
w 55 54 40 0.362267
w 55 54 -40 0.985256
w 55 -54 40 0.788875
w 55 -54 -40 0.354298
w 56 55 41 1
w 56 55 -41 0
w 56 -55 41 0
w 56 -55 -41 1
w 57 56 42 0.0328656
w 57 56 -42 0.556576
w 57 -56 42 0.740562
w 57 -56 -42 0.340619
w 58 57 43 0
w 58 57 -43 0
w 58 -57 43 1
w 58 -57 -43 0
w 59 58 44 0.332657
w 59 58 -44 0.0464641
w 59 -58 44 0.089358
w 59 -58 -44 0.466845
w 60 59 45 0.326779
w 60 59 -45 0.948714
w 60 -59 45 0.0863789
w 60 -59 -45 0.348964
w 61 46 1
w 61 -46 0
w 62 61 47 0.419359
w 62 61 -47 0.697961
w 62 -61 47 0.065529
w 62 -61 -47 0.815242
w 63 62 48 0.210263
w 63 62 -48 0.394495
w 63 -62 48 0.40835
w 63 -62 -48 0.959151
w 64 63 49 0
w 64 63 -49 1
w 64 -63 49 0
w 64 -63 -49 1
w 65 64 50 1
w 65 64 -50 0
w 65 -64 50 0
w 65 -64 -50 0
w 66 65 51 1
w 66 65 -51 1
w 66 -65 51 0
w 66 -65 -51 1
w 67 66 52 0.869788
w 67 66 -52 0.307069
w 67 -66 52 0.0570334
w 67 -66 -52 0.30389
w 68 67 53 0
w 68 67 -53 0
w 68 -67 53 0
w 68 -67 -53 1
w 69 68 54 0.446552
w 69 68 -54 0.0440564
w 69 -68 54 0.932986
w 69 -68 -54 0.854902
w 70 69 55 0
w 70 69 -55 0
w 70 -69 55 0
w 70 -69 -55 1
w 71 70 56 0
w 71 70 -56 0
w 71 -70 56 1
w 71 -70 -56 0
w 72 71 57 0.727328
w 72 71 -57 0.637871
w 72 -71 57 0.0983309
w 72 -71 -57 0.648402
w 73 72 58 0.8064
w 73 72 -58 0.518191
w 73 -72 58 0.16563
w 73 -72 -58 0.863434
w 74 73 59 0.381785
w 74 73 -59 0.631698
w 74 -73 59 0.54533
w 74 -73 -59 0.295902
w 75 74 60 1
w 75 74 -60 1
w 75 -74 60 0
w 75 -74 -60 0
w 76 61 0.512756
w 76 -61 0.377155
w 77 76 62 0
w 77 76 -62 1
w 77 -76 62 1
w 77 -76 -62 0
w 78 77 63 0.841808
w 78 77 -63 0.596203
w 78 -77 63 0.647631
w 78 -77 -63 0.569136
w 79 78 64 1
w 79 78 -64 0
w 79 -78 64 1
w 79 -78 -64 0
w 80 79 65 0.258265
w 80 79 -65 0.415795
w 80 -79 65 0.55781
w 80 -79 -65 0.64005
w 81 80 66 1
w 81 80 -66 0
w 81 -80 66 1
w 81 -80 -66 0
w 82 81 67 0.0225348
w 82 81 -67 0.20377
w 82 -81 67 0.275761
w 82 -81 -67 0.535291
w 83 82 68 0.692945
w 83 82 -68 0.750967
w 83 -82 68 0.0864067
w 83 -82 -68 0.261655
w 84 83 69 0
w 84 83 -69 1
w 84 -83 69 1
w 84 -83 -69 1
w 85 84 70 0.853468
w 85 84 -70 0.410589
w 85 -84 70 0.890139
w 85 -84 -70 0.946102
w 86 85 71 0.625868
w 86 85 -71 0.204367
w 86 -85 71 0.378746
w 86 -85 -71 0.183678
w 87 86 72 0.42624
w 87 86 -72 0.286819
w 87 -86 72 0.780369
w 87 -86 -72 0.939227
w 88 87 73 0
w 88 87 -73 0
w 88 -87 73 1
w 88 -87 -73 1
w 89 88 74 0
w 89 88 -74 0
w 89 -88 74 1
w 89 -88 -74 1
w 90 89 75 0.271212
w 90 89 -75 0.361878
w 90 -89 75 0.792599
w 90 -89 -75 0.890606
w 91 76 0
w 91 -76 1
w 92 91 77 0.437095
w 92 91 -77 0.355338
w 92 -91 77 0.690177
w 92 -91 -77 0.400046
w 93 92 78 0.894544
w 93 92 -78 0.778793
w 93 -92 78 0.164884
w 93 -92 -78 0.738961
w 94 93 79 0
w 94 93 -79 1
w 94 -93 79 0
w 94 -93 -79 1
w 95 94 80 0.106021
w 95 94 -80 0.603033
w 95 -94 80 0.71264
w 95 -94 -80 0.603073
w 96 95 81 0.140121
w 96 95 -81 0.851092
w 96 -95 81 0.20639
w 96 -95 -81 0.829256
w 97 96 82 1
w 97 96 -82 0
w 97 -96 82 0
w 97 -96 -82 0
w 98 97 83 1
w 98 97 -83 1
w 98 -97 83 0
w 98 -97 -83 1
w 99 98 84 1
w 99 98 -84 1
w 99 -98 84 1
w 99 -98 -84 0
w 100 99 85 0
w 100 99 -85 0
w 100 -99 85 0
w 100 -99 -85 1
w 101 100 86 0.666021
w 101 100 -86 0.568699
w 101 -100 86 0.290742
w 101 -100 -86 0.269094
w 102 101 87 1
w 102 101 -87 1
w 102 -101 87 0
w 102 -101 -87 0
w 103 102 88 0
w 103 102 -88 0
w 103 -102 88 0
w 103 -102 -88 1
w 104 103 89 1
w 104 103 -89 1
w 104 -103 89 0
w 104 -103 -89 1
w 105 104 90 0.801252
w 105 104 -90 0.474131
w 105 -104 90 0.423499
w 105 -104 -90 0.881919
w 106 91 0.463683
w 106 -91 0.481915
w 107 106 92 0
w 107 106 -92 1
w 107 -106 92 0
w 107 -106 -92 0
w 108 107 93 0
w 108 107 -93 0
w 108 -107 93 0
w 108 -107 -93 1
w 109 108 94 0
w 109 108 -94 1
w 109 -108 94 1
w 109 -108 -94 0
w 110 109 95 1
w 110 109 -95 1
w 110 -109 95 1
w 110 -109 -95 0
w 111 110 96 1
w 111 110 -96 1
w 111 -110 96 0
w 111 -110 -96 1
w 112 111 97 0.562679
w 112 111 -97 0.158163
w 112 -111 97 0.528289
w 112 -111 -97 0.0263625
w 113 112 98 0.97816
w 113 112 -98 0.455712
w 113 -112 98 0.700096
w 113 -112 -98 0.0940527
w 114 113 99 1
w 114 113 -99 1
w 114 -113 99 0
w 114 -113 -99 1
w 115 114 100 0.946869
w 115 114 -100 0.874214
w 115 -114 100 0.731872
w 115 -114 -100 0.216586
w 116 115 101 0.734934
w 116 115 -101 0.285942
w 116 -115 101 0.690669
w 116 -115 -101 0.75038
w 117 116 102 0
w 117 116 -102 1
w 117 -116 102 0
w 117 -116 -102 0
w 118 117 103 0.69669
w 118 117 -103 0.659781
w 118 -117 103 0.517798
w 118 -117 -103 0.723053
w 119 118 104 1
w 119 118 -104 0
w 119 -118 104 1
w 119 -118 -104 1
w 120 119 105 0.0508095
w 120 119 -105 0.06905
w 120 -119 105 0.514543
w 120 -119 -105 0.883285
w 121 106 1
w 121 -106 0
w 122 121 107 0.785133
w 122 121 -107 0.677998
w 122 -121 107 0.555426
w 122 -121 -107 0.520067
w 123 122 108 0.246095
w 123 122 -108 0.270447
w 123 -122 108 0.150746
w 123 -122 -108 0.240926
w 124 123 109 1
w 124 123 -109 0
w 124 -123 109 0
w 124 -123 -109 0
w 125 124 110 1
w 125 124 -110 1
w 125 -124 110 0
w 125 -124 -110 1
w 126 125 111 0.973445
w 126 125 -111 0.957034
w 126 -125 111 0.0951159
w 126 -125 -111 0.60597
w 127 126 112 0
w 127 126 -112 1
w 127 -126 112 1
w 127 -126 -112 1
w 128 127 113 0.648627
w 128 127 -113 0.00255939
w 128 -127 113 0.259923
w 128 -127 -113 0.204053
w 129 128 114 0.223863
w 129 128 -114 0.450149
w 129 -128 114 0.793073
w 129 -128 -114 0.37461
w 130 129 115 0.288894
w 130 129 -115 0.876448
w 130 -129 115 0.066012
w 130 -129 -115 0.286332
w 131 130 116 1
w 131 130 -116 0
w 131 -130 116 1
w 131 -130 -116 0
w 132 131 117 0.882046
w 132 131 -117 0.905764
w 132 -131 117 0.857664
w 132 -131 -117 0.977162
w 133 132 118 0.865508
w 133 132 -118 0.141328
w 133 -132 118 0.632247
w 133 -132 -118 0.756637
w 134 133 119 1
w 134 133 -119 1
w 134 -133 119 0
w 134 -133 -119 0
w 135 134 120 0.88394
w 135 134 -120 0.697958
w 135 -134 120 0.059466
w 135 -134 -120 0.677014
w 136 121 0
w 136 -121 1
w 137 136 122 0.949015
w 137 136 -122 0.816553
w 137 -136 122 0.252239
w 137 -136 -122 0.316811
w 138 137 123 0.19579
w 138 137 -123 0.693752
w 138 -137 123 0.886511
w 138 -137 -123 0.0964201
w 139 138 124 0.792275
w 139 138 -124 0.954084
w 139 -138 124 0.552961
w 139 -138 -124 0.304008
w 140 139 125 0.694289
w 140 139 -125 0.936255
w 140 -139 125 0.576229
w 140 -139 -125 0.0530441
w 141 140 126 1
w 141 140 -126 1
w 141 -140 126 0
w 141 -140 -126 1
w 142 141 127 1
w 142 141 -127 0
w 142 -141 127 1
w 142 -141 -127 1
w 143 142 128 0.344061
w 143 142 -128 0.21737
w 143 -142 128 0.193459
w 143 -142 -128 0.660871
w 144 143 129 1
w 144 143 -129 0
w 144 -143 129 0
w 144 -143 -129 0
w 145 144 130 0.850347
w 145 144 -130 0.439753
w 145 -144 130 0.483384
w 145 -144 -130 0.154356
w 146 145 131 0
w 146 145 -131 0
w 146 -145 131 0
w 146 -145 -131 1
w 147 146 132 1
w 147 146 -132 0
w 147 -146 132 0
w 147 -146 -132 1
w 148 147 133 0.188036
w 148 147 -133 0.0581541
w 148 -147 133 0.918686
w 148 -147 -133 0.583081
w 149 148 134 1
w 149 148 -134 0
w 149 -148 134 0
w 149 -148 -134 1
w 150 149 135 0.847903
w 150 149 -135 0.442613
w 150 -149 135 0.942637
w 150 -149 -135 0.905976
w 151 136 0.873059
w 151 -136 0.756323
w 152 151 137 0
w 152 151 -137 1
w 152 -151 137 1
w 152 -151 -137 1
w 153 152 138 0
w 153 152 -138 0
w 153 -152 138 0
w 153 -152 -138 1
w 154 153 139 0
w 154 153 -139 1
w 154 -153 139 0
w 154 -153 -139 0
w 155 154 140 1
w 155 154 -140 1
w 155 -154 140 0
w 155 -154 -140 1
w 156 155 141 0.18524
w 156 155 -141 0.394155
w 156 -155 141 0.729271
w 156 -155 -141 0.627853
w 157 156 142 1
w 157 156 -142 0
w 157 -156 142 1
w 157 -156 -142 0
w 158 157 143 0.566294
w 158 157 -143 0.302249
w 158 -157 143 0.55155
w 158 -157 -143 0.10041
w 159 158 144 1
w 159 158 -144 0
w 159 -158 144 0
w 159 -158 -144 0
w 160 159 145 0.98243
w 160 159 -145 0.628436
w 160 -159 145 0.949668
w 160 -159 -145 0.728485
w 161 160 146 0.828668
w 161 160 -146 0.933512
w 161 -160 146 0.0322814
w 161 -160 -146 0.63481
w 162 161 147 0.217521
w 162 161 -147 0.0289646
w 162 -161 147 0.54415
w 162 -161 -147 0.845374
w 163 162 148 1
w 163 162 -148 1
w 163 -162 148 0
w 163 -162 -148 1
w 164 163 149 1
w 164 163 -149 0
w 164 -163 149 0
w 164 -163 -149 0
w 165 164 150 1
w 165 164 -150 0
w 165 -164 150 0
w 165 -164 -150 1
w 166 151 0
w 166 -151 1
w 167 166 152 0
w 167 166 -152 0
w 167 -166 152 1
w 167 -166 -152 0
w 168 167 153 1
w 168 167 -153 0
w 168 -167 153 0
w 168 -167 -153 1
w 169 168 154 0
w 169 168 -154 1
w 169 -168 154 1
w 169 -168 -154 1
w 170 169 155 0
w 170 169 -155 1
w 170 -169 155 0
w 170 -169 -155 0
w 171 170 156 0.813296
w 171 170 -156 0.611142
w 171 -170 156 0.144052
w 171 -170 -156 0.990049
w 172 171 157 0.251607
w 172 171 -157 0.712667
w 172 -171 157 0.689136
w 172 -171 -157 0.634316
w 173 172 158 0
w 173 172 -158 0
w 173 -172 158 1
w 173 -172 -158 1
w 174 173 159 0.569769
w 174 173 -159 0.585691
w 174 -173 159 0.500843
w 174 -173 -159 0.35928
w 175 174 160 1
w 175 174 -160 1
w 175 -174 160 0
w 175 -174 -160 1
w 176 175 161 0.0771605
w 176 175 -161 0.121828
w 176 -175 161 0.73017
w 176 -175 -161 0.811075
w 177 176 162 0
w 177 176 -162 1
w 177 -176 162 0
w 177 -176 -162 1
w 178 177 163 0.419228
w 178 177 -163 0.246182
w 178 -177 163 0.614227
w 178 -177 -163 0.0535438
w 179 178 164 0
w 179 178 -164 0
w 179 -178 164 1
w 179 -178 -164 0
w 180 179 165 1
w 180 179 -165 1
w 180 -179 165 1
w 180 -179 -165 0
w 181 166 1
w 181 -166 0
w 182 181 167 0.464981
w 182 181 -167 0.0879801
w 182 -181 167 0.219077
w 182 -181 -167 0.25507
w 183 182 168 1
w 183 182 -168 0
w 183 -182 168 1
w 183 -182 -168 0
w 184 183 169 0.398432
w 184 183 -169 0.532094
w 184 -183 169 0.0622218
w 184 -183 -169 0.323523
w 185 184 170 0.308404
w 185 184 -170 0.937751
w 185 -184 170 0.00486515
w 185 -184 -170 0.64362
w 186 185 171 0
w 186 185 -171 0
w 186 -185 171 0
w 186 -185 -171 1
w 187 186 172 0.44961
w 187 186 -172 0.716745
w 187 -186 172 0.393286
w 187 -186 -172 0.493615
w 188 187 173 0
w 188 187 -173 0
w 188 -187 173 0
w 188 -187 -173 1
w 189 188 174 1
w 189 188 -174 1
w 189 -188 174 1
w 189 -188 -174 0
w 190 189 175 0.763569
w 190 189 -175 0.706924
w 190 -189 175 0.789835
w 190 -189 -175 0.0870921
w 191 190 176 0.0982396
w 191 190 -176 0.024843
w 191 -190 176 0.663111
w 191 -190 -176 0.741859
w 192 191 177 1
w 192 191 -177 1
w 192 -191 177 0
w 192 -191 -177 0
w 193 192 178 0.52112
w 193 192 -178 0.0436105
w 193 -192 178 0.243003
w 193 -192 -178 0.0147355
w 194 193 179 0
w 194 193 -179 0
w 194 -193 179 1
w 194 -193 -179 0
w 195 194 180 1
w 195 194 -180 0
w 195 -194 180 1
w 195 -194 -180 0
w 196 181 0.113519
w 196 -181 0.920818
w 197 196 182 0.903355
w 197 196 -182 0.0079104
w 197 -196 182 0.313187
w 197 -196 -182 0.00159423
w 198 197 183 1
w 198 197 -183 0
w 198 -197 183 1
w 198 -197 -183 0
w 199 198 184 0.538912
w 199 198 -184 0.670143
w 199 -198 184 0.728932
w 199 -198 -184 0.0600319
w 200 199 185 0.971935
w 200 199 -185 0.0747674
w 200 -199 185 0.893165
w 200 -199 -185 0.465312
w 201 200 186 1
w 201 200 -186 1
w 201 -200 186 0
w 201 -200 -186 0
w 202 201 187 1
w 202 201 -187 0
w 202 -201 187 1
w 202 -201 -187 0
w 203 202 188 1
w 203 202 -188 1
w 203 -202 188 0
w 203 -202 -188 0
w 204 203 189 0.207202
w 204 203 -189 0.093772
w 204 -203 189 0.382924
w 204 -203 -189 0.674603
w 205 204 190 1
w 205 204 -190 1
w 205 -204 190 0
w 205 -204 -190 1
w 206 205 191 0.963007
w 206 205 -191 0.348314
w 206 -205 191 0.714112
w 206 -205 -191 0.428319
w 207 206 192 1
w 207 206 -192 0
w 207 -206 192 1
w 207 -206 -192 0
w 208 207 193 1
w 208 207 -193 0
w 208 -207 193 0
w 208 -207 -193 0
w 209 208 194 0
w 209 208 -194 1
w 209 -208 194 0
w 209 -208 -194 1
w 210 209 195 0.22267
w 210 209 -195 0.647307
w 210 -209 195 0.567449
w 210 -209 -195 0.65972
w 211 196 0.780964
w 211 -196 0.766913
w 212 211 197 0.0545109
w 212 211 -197 0.58786
w 212 -211 197 0.863526
w 212 -211 -197 0.402825
w 213 212 198 1
w 213 212 -198 1
w 213 -212 198 0
w 213 -212 -198 1
w 214 213 199 0
w 214 213 -199 1
w 214 -213 199 0
w 214 -213 -199 0
w 215 214 200 0
w 215 214 -200 1
w 215 -214 200 1
w 215 -214 -200 1
w 216 215 201 0.559593
w 216 215 -201 0.845724
w 216 -215 201 0.776225
w 216 -215 -201 0.2069
w 217 216 202 1
w 217 216 -202 0
w 217 -216 202 0
w 217 -216 -202 0
w 218 217 203 1
w 218 217 -203 0
w 218 -217 203 0
w 218 -217 -203 0
w 219 218 204 1
w 219 218 -204 1
w 219 -218 204 1
w 219 -218 -204 0
w 220 219 205 0.81651
w 220 219 -205 0.526639
w 220 -219 205 0.564723
w 220 -219 -205 0.572547
w 221 220 206 0.235021
w 221 220 -206 0.839781
w 221 -220 206 0.364526
w 221 -220 -206 0.530231
w 222 221 207 0.91808
w 222 221 -207 0.0898237
w 222 -221 207 0.638383
w 222 -221 -207 0.694305
w 223 222 208 1
w 223 222 -208 0
w 223 -222 208 0
w 223 -222 -208 1
w 224 223 209 0
w 224 223 -209 1
w 224 -223 209 1
w 224 -223 -209 0
w 225 224 210 0
w 225 224 -210 1
w 225 -224 210 0
w 225 -224 -210 1